Name:		mgval_0.45_8B
Optimal value:	-1
#Vehicles:	4
Capacity:	150
Depot Node:	1
#Nodes:		30
#Edges:		27
#Arcs:		64
#Required N:	23
#Required E:	14
#Required A:	35

ReN.	DEMAND	S. COST
N2	13	13
N3	6	6
N4	8	8
N7	4	4
N8	32	32
N9	13	13
N10	5	5
N11	3	3
N12	6	6
N13	12	12
N14	8	8
N15	11	11
N16	24	24
N17	8	8
N18	5	5
N20	18	18
N21	22	22
N22	23	23
N23	2	2
N25	2	2
N26	6	6
N28	13	13
N29	16	16

ReE.	FROM N.	TO N.	T. COST	DEMAND	S. COST
E14	26	30	3	4	4
E15	23	26	7	10	10
E16	14	15	9	10	10
E17	8	9	7	18	18
E18	10	15	5	7	7
E19	18	19	2	6	6
E20	4	5	5	11	11
E21	7	12	8	11	11
E22	13	14	5	8	8
E23	4	7	1	4	4
E24	15	19	7	11	11
E25	10	19	10	12	12
E26	16	21	7	8	8
E27	6	11	7	10	10

EDGE	FROM N.	TO N.	T. COST
NrE1	16	17	9
NrE2	8	14	7
NrE3	1	2	4
NrE4	12	13	3
NrE5	29	30	6
NrE6	14	17	4
NrE7	28	29	7
NrE8	20	24	2
NrE9	13	17	7
NrE10	22	29	4
NrE11	22	23	10
NrE12	15	18	3
NrE13	21	29	8

ReA.	FROM N.	TO N.	T. COST	DEMAND	S. COST
A30	25	22	2	6	6
A31	2	3	3	6	6
A32	30	25	1	2	2
A33	13	8	6	5	5
A34	12	16	6	4	4
A35	15	8	10	16	16
A36	5	1	3	4	4
A37	27	24	5	9	9
A38	5	8	8	5	5
A39	13	16	8	5	5
A40	21	22	5	3	3
A41	25	29	3	2	2
A42	20	27	5	4	4
A43	28	27	10	11	11
A44	8	5	8	6	6
A45	20	16	3	3	3
A46	10	3	6	6	6
A47	1	9	10	16	16
A48	16	20	3	2	2
A49	11	16	5	6	6
A50	18	23	3	3	3
A51	7	6	3	3	3
A52	6	7	3	3	3
A53	20	21	7	4	4
A54	24	28	2	3	3
A55	12	11	5	4	4
A56	22	17	5	3	3
A57	23	18	3	4	4
A58	28	21	5	4	4
A59	16	13	8	5	5
A60	24	21	5	3	3
A61	30	23	3	3	3
A62	18	26	9	6	6
A63	1	5	3	3	3
A64	27	20	5	4	4

ARC	FROM N.	TO N.	T. COST
NrA1	16	11	5
NrA2	29	25	3
NrA3	2	9	5
NrA4	4	6	3
NrA5	17	22	5
NrA6	25	30	1
NrA7	9	2	5
NrA8	7	8	8
NrA9	9	10	3
NrA10	11	12	5
NrA11	21	28	5
NrA12	1	8	7
NrA13	9	15	3
NrA14	28	24	2
NrA15	21	20	7
NrA16	26	18	9
NrA17	20	11	10
NrA18	16	12	6
NrA19	10	9	3
NrA20	17	18	5
NrA21	3	10	6
NrA22	21	24	5
NrA23	23	30	3
NrA24	8	13	6
NrA25	18	17	5
NrA26	15	9	3
NrA27	8	7	8
NrA28	8	1	7
NrA29	22	21	5
